n_res = 4;
rc = [ 0, 0, 0, 0 ];
n_tasks = 30;
d = [ 10, 6, 5, 8, 5, 10, 7, 6, 9, 8, 10, 5, 3, 6, 3, 1, 7, 2, 8, 9, 1, 4, 9, 3, 5, 6, 10, 1, 4, 6 ];
rr = [| 0, 0, 0, 0, 0, 0, 0, 0, 0, 0, 0, 0, 0, 0, 0, 0, 0, 0, 0, 0, 0, 0, 0, 0, 0, 0, 0, 0, 0, 0
      | 0, 0, 0, 0, 0, 0, 0, 0, 0, 0, 0, 0, 0, 0, 0, 0, 0, 0, 0, 0, 0, 0, 0, 0, 0, 0, 0, 0, 0, 0
      | 0, 0, 0, 0, 0, 0, 0, 0, 0, 0, 0, 0, 0, 0, 0, 0, 0, 0, 0, 0, 0, 0, 0, 0, 0, 0, 0, 0, 0, 0
      | 0, 0, 0, 0, 0, 0, 0, 0, 0, 0, 0, 0, 0, 0, 0, 0, 0, 0, 0, 0, 0, 0, 0, 0, 0, 0, 0, 0, 0, 0 |];
suc = [ { 7, 16, 17 },
       { 4, 5, 11 },
       { 9, 21, 23 },
       { 6, 13 },
       { 8, 13 },
       { 9, 12 },
       { 9, 10, 24 },
       { 16 },
       { 14, 22, 26 },
       { 14 },
       { 23 },
       { 14, 17, 23 },
       { 15, 17, 21 },
       { 18, 19 },
       { 16, 20, 26 },
       { 27 },
       { 28 },
       { 29 },
       { 20 },
       { 25, 29 },
       { 25, 29 },
       { 28, 30 },
       { 26, 30 },
       { 25 },
       { 27, 30 },
       { 27 },
       { 28 },
       {  },
       {  },
       {  } ];
